c pcminimize - minimizing a CNF with respect to propagation completeness by iterative removing of absorbed clauses.
c Petr Kucera, 2016-2021
c Version 2.7, revision 59, git hash 4910a71, date 2024-07-16 20:17:42 +0200
p cnf 391 588
-139 -252 0
251 -252 0
252 -253 0
29 -253 0
254 -255 0
255 -256 0
-29 -256 0
253 256 -257 0
257 -258 0
4 -258 0
-29 -259 0
259 -260 0
254 -260 0
260 -261 0
-4 -261 0
258 261 -262 0
-50 -263 0
169 -263 0
264 -265 0
-169 -265 0
263 265 -266 0
267 -268 0
239 -268 0
-239 -269 0
268 269 -270 0
270 -271 0
76 -271 0
-239 -272 0
272 -273 0
-76 -273 0
271 273 -274 0
274 -275 0
9 -275 0
270 -276 0
276 -277 0
-9 -277 0
275 277 -278 0
279 -280 0
89 -280 0
-89 -281 0
280 281 -282 0
-7 -283 0
72 -283 0
232 -283 0
266 -285 0
278 -285 0
282 -285 0
283 -285 0
284 -285 0
285 -286 0
201 -286 0
-50 -287 0
232 -287 0
264 -288 0
-232 -288 0
287 288 -289 0
289 -290 0
169 -290 0
264 -292 0
291 -292 0
292 -293 0
-169 -293 0
290 293 -294 0
-7 -295 0
72 -295 0
296 -297 0
-72 -297 0
295 297 -298 0
298 -299 0
177 -299 0
-7 -301 0
300 -301 0
301 -302 0
-177 -302 0
299 302 -303 0
-9 -304 0
294 -305 0
270 -305 0
303 -305 0
304 -305 0
305 -306 0
-201 -306 0
308 -309 0
93 -309 0
-212 -310 0
-93 -310 0
309 310 -311 0
62 -312 0
313 -314 0
-62 -314 0
312 314 -315 0
-155 -316 0
-164 -316 0
170 -316 0
-218 -316 0
262 -318 0
307 -318 0
311 -318 0
315 -318 0
316 -318 0
317 -318 0
319 -321 0
320 -321 0
227 -322 0
-7 -323 0
72 -323 0
-155 -323 0
-164 -323 0
-218 -323 0
232 -323 0
284 -325 0
324 -325 0
317 -325 0
266 -326 0
278 -326 0
315 -326 0
323 -326 0
325 -326 0
326 -327 0
201 -327 0
-7 -328 0
62 -328 0
-72 -328 0
155 -328 0
164 -328 0
-170 -328 0
-183 -328 0
218 -328 0
328 -329 0
284 -329 0
329 -330 0
92 -330 0
164 -331 0
-183 -331 0
331 -332 0
218 -332 0
-183 -333 0
164 -333 0
317 -334 0
-164 -334 0
333 334 -335 0
335 -336 0
-218 -336 0
332 336 -337 0
296 -338 0
177 -338 0
-7 -339 0
-177 -339 0
338 339 -340 0
-72 -341 0
-170 -341 0
337 -342 0
340 -342 0
341 -342 0
342 -343 0
155 -343 0
-164 -344 0
-218 -344 0
303 -345 0
344 -345 0
317 -345 0
345 -346 0
324 -346 0
346 -347 0
-155 -347 0
343 347 -348 0
348 -349 0
315 -349 0
349 -350 0
-92 -350 0
330 350 -351 0
-9 -352 0
351 -353 0
294 -353 0
270 -353 0
352 -353 0
353 -354 0
-201 -354 0
355 -357 0
257 -357 0
356 -357 0
358 -360 0
308 -360 0
359 -360 0
-227 -361 0
144 -363 0
364 -365 0
-144 -365 0
368 -371 0
369 -371 0
370 -371 0
362 -372 0
366 -372 0
371 -372 0
-1 0
-2 0
3 0
5 0
-6 0
-8 0
10 0
11 0
-12 0
13 0
14 0
16 0
17 0
18 0
19 0
20 0
-21 0
-22 0
-23 0
24 0
-25 0
26 0
27 0
-28 0
30 0
-31 0
-32 0
33 0
-34 0
-35 0
36 0
37 0
-38 0
-39 0
40 0
42 0
-43 0
44 0
-45 0
-46 0
48 0
-51 0
-52 0
-53 0
54 0
55 0
-56 0
57 0
-58 0
-59 0
-60 0
-61 0
63 0
64 0
65 0
66 0
-67 0
68 0
-69 0
-70 0
71 0
-73 0
-74 0
75 0
77 0
79 0
-80 0
81 0
-82 0
83 0
84 0
85 0
-86 0
-87 0
88 0
-90 0
91 0
95 0
96 0
97 0
-98 0
99 0
-100 0
-101 0
102 0
103 0
-104 0
105 0
-106 0
-107 0
108 0
-109 0
-110 0
111 0
112 0
113 0
-114 0
-115 0
-116 0
117 0
118 0
119 0
-120 0
-121 0
122 0
123 0
-124 0
-126 0
127 0
128 0
-129 0
130 0
131 0
-132 0
-133 0
134 0
135 0
-136 0
-137 0
-138 0
-140 0
-142 0
143 0
145 0
146 0
-147 0
148 0
-149 0
-150 0
-151 0
-152 0
153 0
154 0
156 0
-157 0
158 0
159 0
-160 0
161 0
162 0
165 0
-166 0
-167 0
168 0
171 0
172 0
173 0
-174 0
-175 0
176 0
-178 0
179 0
-180 0
-181 0
182 0
-184 0
185 0
-186 0
-187 0
188 0
189 0
-190 0
191 0
192 0
-194 0
195 0
196 0
197 0
-198 0
199 0
-200 0
202 0
-203 0
204 0
205 0
-206 0
-207 0
-208 0
-209 0
-210 0
211 0
-213 0
214 0
-215 0
-216 0
-217 0
219 0
-220 0
221 0
222 0
223 0
-224 0
-225 0
226 0
228 0
-229 0
230 0
231 0
233 0
-234 0
235 0
-236 0
237 0
238 0
240 0
-241 0
242 0
-243 0
244 0
245 0
-246 0
-247 0
-248 0
249 0
250 0
-390 391 0
-381 382 0
-380 381 0
-377 378 0
-372 373 0
-384 385 0
-118 390 0
-367 372 0
-323 326 0
-319 321 0
15 319 0
-317 318 325 334 345 0
-316 318 0
-274 275 0
-170 316 324 0
-273 274 0
218 316 323 336 344 0
-41 320 0
62 314 0
-318 321 0
141 313 0
-312 315 0
-311 318 0
212 308 310 0
-307 318 0
-62 312 328 0
-345 346 0
-306 307 0
201 306 354 0
-305 306 0
198 374 0
-303 305 345 0
76 273 0
-310 311 0
-169 263 290 0
-337 342 0
229 384 0
-298 299 0
72 297 300 328 341 0
155 316 323 347 0
-263 266 0
-324 325 346 0
-291 292 0
-290 294 0
-302 303 0
-289 290 0
-286 307 0
-201 286 327 0
-284 285 325 329 0
-183 317 0
-297 298 0
-283 285 0
-287 289 0
139 252 254 0
-344 345 0
-261 262 0
-177 284 299 338 0
-253 257 0
-350 351 0
-374 375 0
-49 279 0
-285 286 0
-144 363 0
-77 388 0
169 265 293 0
50 263 264 287 0
-353 354 0
-281 282 0
-379 380 0
47 267 0
-260 261 0
-301 302 0
-163 251 255 259 0
-354 355 0
-277 278 0
-272 273 0
-288 289 0
7 283 295 296 301 323 328 339 0
183 317 328 331 333 0
-257 258 357 0
-347 348 0
-50 264 0
-262 318 0
-321 322 0
239 269 272 0
-294 305 353 0
-7 296 0
-251 252 0
-309 311 0
-29 253 0
-164 328 331 333 0
-63 387 0
-271 274 0
-266 285 326 0
-358 360 0
-89 280 0
-351 353 0
-256 257 0
-314 315 0
-320 321 0
-349 350 0
-254 255 260 0
-212 308 0
-268 270 0
-259 260 0
-252 253 0
-348 349 0
-308 309 360 0
-313 314 0
12 386 0
-304 305 0
-139 254 0
-276 277 0
9 277 304 352 0
-267 268 0
-9 275 0
-275 278 0
-270 271 276 305 353 0
-278 285 326 0
-280 282 0
163 251 0
89 281 304 356 0
-295 298 0
232 288 291 0
-282 285 0
-239 268 0
-258 262 0
-330 351 0
-255 256 0
-265 266 0
58 383 0
164 316 323 334 344 0
-72 283 295 300 323 0
170 324 328 341 0
-326 327 0
-327 355 0
167 379 0
-155 328 343 0
-279 280 0
-218 328 332 0
-364 365 0
-328 329 0
-329 330 0
-331 332 0
-296 297 338 0
-332 337 0
-333 335 0
-293 294 0
-334 335 0
-335 336 0
-338 340 0
-300 301 0
-339 340 0
-340 342 0
-342 343 0
-343 348 0
-346 347 0
-352 353 0
-355 357 0
-356 357 0
-357 360 0
-299 303 0
-360 361 0
-94 364 0
144 365 0
-92 330 0
-336 337 0
-325 326 0
-375 376 0
-315 318 326 349 0
-359 360 0
-292 293 0
-173 377 0
-388 389 0
-264 265 288 292 0
-269 270 0
177 284 302 339 0
-341 342 0
-97 367 0
